PointerNetwork/Ptr_Net_TSPTW/benchmark/n20w80/n20w80.003.txt.solution
1 4 16 10 17 20 11 15 14 12 5 3 19 8 13 7 2 6 21 18 9 
320
